lp-files/instances/small/instance10_16.lp
Minimize
z: 48 x1 + 64 x2 + 70 x3 + 25 x4 + 42 x5 + 40 x6 + 48 x7 + 54 x8 + 21 x9 + 72 x10 + 30 x11 + 20 x12 + 35 x13 + 27 x14 + 18 x15 + 28 x16
Subject To
a1a1: y1,1 - x1 <= 0
a1a2: y1,2 - x2 <= 0
a1a3: y1,3 - x3 <= 0
a1a4: y1,4 - x4 <= 0
a1a5: y1,5 - x5 <= 0
a1a6: y1,6 - x6 <= 0
a1a7: y1,7 - x7 <= 0
a1a8: y1,8 - x8 <= 0
a1a9: y1,9 - x9 <= 0
a1a10: y1,10 - x10 <= 0
a1a11: y1,11 - x11 <= 0
a1a12: y1,12 - x12 <= 0
a1a13: y1,13 - x13 <= 0
a1a14: y1,14 - x14 <= 0
a1a15: y1,15 - x15 <= 0
a1a16: y1,16 - x16 <= 0
a2a1: y2,1 - x1 <= 0
a2a2: y2,2 - x2 <= 0
a2a3: y2,3 - x3 <= 0
a2a4: y2,4 - x4 <= 0
a2a5: y2,5 - x5 <= 0
a2a6: y2,6 - x6 <= 0
a2a7: y2,7 - x7 <= 0
a2a8: y2,8 - x8 <= 0
a2a9: y2,9 - x9 <= 0
a2a10: y2,10 - x10 <= 0
a2a11: y2,11 - x11 <= 0
a2a12: y2,12 - x12 <= 0
a2a13: y2,13 - x13 <= 0
a2a14: y2,14 - x14 <= 0
a2a15: y2,15 - x15 <= 0
a2a16: y2,16 - x16 <= 0
a3a1: y3,1 - x1 <= 0
a3a2: y3,2 - x2 <= 0
a3a3: y3,3 - x3 <= 0
a3a4: y3,4 - x4 <= 0
a3a5: y3,5 - x5 <= 0
a3a6: y3,6 - x6 <= 0
a3a7: y3,7 - x7 <= 0
a3a8: y3,8 - x8 <= 0
a3a9: y3,9 - x9 <= 0
a3a10: y3,10 - x10 <= 0
a3a11: y3,11 - x11 <= 0
a3a12: y3,12 - x12 <= 0
a3a13: y3,13 - x13 <= 0
a3a14: y3,14 - x14 <= 0
a3a15: y3,15 - x15 <= 0
a3a16: y3,16 - x16 <= 0
a4a1: y4,1 - x1 <= 0
a4a2: y4,2 - x2 <= 0
a4a3: y4,3 - x3 <= 0
a4a4: y4,4 - x4 <= 0
a4a5: y4,5 - x5 <= 0
a4a6: y4,6 - x6 <= 0
a4a7: y4,7 - x7 <= 0
a4a8: y4,8 - x8 <= 0
a4a9: y4,9 - x9 <= 0
a4a10: y4,10 - x10 <= 0
a4a11: y4,11 - x11 <= 0
a4a12: y4,12 - x12 <= 0
a4a13: y4,13 - x13 <= 0
a4a14: y4,14 - x14 <= 0
a4a15: y4,15 - x15 <= 0
a4a16: y4,16 - x16 <= 0
a5a1: y5,1 - x1 <= 0
a5a2: y5,2 - x2 <= 0
a5a3: y5,3 - x3 <= 0
a5a4: y5,4 - x4 <= 0
a5a5: y5,5 - x5 <= 0
a5a6: y5,6 - x6 <= 0
a5a7: y5,7 - x7 <= 0
a5a8: y5,8 - x8 <= 0
a5a9: y5,9 - x9 <= 0
a5a10: y5,10 - x10 <= 0
a5a11: y5,11 - x11 <= 0
a5a12: y5,12 - x12 <= 0
a5a13: y5,13 - x13 <= 0
a5a14: y5,14 - x14 <= 0
a5a15: y5,15 - x15 <= 0
a5a16: y5,16 - x16 <= 0
a6a1: y6,1 - x1 <= 0
a6a2: y6,2 - x2 <= 0
a6a3: y6,3 - x3 <= 0
a6a4: y6,4 - x4 <= 0
a6a5: y6,5 - x5 <= 0
a6a6: y6,6 - x6 <= 0
a6a7: y6,7 - x7 <= 0
a6a8: y6,8 - x8 <= 0
a6a9: y6,9 - x9 <= 0
a6a10: y6,10 - x10 <= 0
a6a11: y6,11 - x11 <= 0
a6a12: y6,12 - x12 <= 0
a6a13: y6,13 - x13 <= 0
a6a14: y6,14 - x14 <= 0
a6a15: y6,15 - x15 <= 0
a6a16: y6,16 - x16 <= 0
a7a1: y7,1 - x1 <= 0
a7a2: y7,2 - x2 <= 0
a7a3: y7,3 - x3 <= 0
a7a4: y7,4 - x4 <= 0
a7a5: y7,5 - x5 <= 0
a7a6: y7,6 - x6 <= 0
a7a7: y7,7 - x7 <= 0
a7a8: y7,8 - x8 <= 0
a7a9: y7,9 - x9 <= 0
a7a10: y7,10 - x10 <= 0
a7a11: y7,11 - x11 <= 0
a7a12: y7,12 - x12 <= 0
a7a13: y7,13 - x13 <= 0
a7a14: y7,14 - x14 <= 0
a7a15: y7,15 - x15 <= 0
a7a16: y7,16 - x16 <= 0
a8a1: y8,1 - x1 <= 0
a8a2: y8,2 - x2 <= 0
a8a3: y8,3 - x3 <= 0
a8a4: y8,4 - x4 <= 0
a8a5: y8,5 - x5 <= 0
a8a6: y8,6 - x6 <= 0
a8a7: y8,7 - x7 <= 0
a8a8: y8,8 - x8 <= 0
a8a9: y8,9 - x9 <= 0
a8a10: y8,10 - x10 <= 0
a8a11: y8,11 - x11 <= 0
a8a12: y8,12 - x12 <= 0
a8a13: y8,13 - x13 <= 0
a8a14: y8,14 - x14 <= 0
a8a15: y8,15 - x15 <= 0
a8a16: y8,16 - x16 <= 0
a9a1: y9,1 - x1 <= 0
a9a2: y9,2 - x2 <= 0
a9a3: y9,3 - x3 <= 0
a9a4: y9,4 - x4 <= 0
a9a5: y9,5 - x5 <= 0
a9a6: y9,6 - x6 <= 0
a9a7: y9,7 - x7 <= 0
a9a8: y9,8 - x8 <= 0
a9a9: y9,9 - x9 <= 0
a9a10: y9,10 - x10 <= 0
a9a11: y9,11 - x11 <= 0
a9a12: y9,12 - x12 <= 0
a9a13: y9,13 - x13 <= 0
a9a14: y9,14 - x14 <= 0
a9a15: y9,15 - x15 <= 0
a9a16: y9,16 - x16 <= 0
a10a1: y10,1 - x1 <= 0
a10a2: y10,2 - x2 <= 0
a10a3: y10,3 - x3 <= 0
a10a4: y10,4 - x4 <= 0
a10a5: y10,5 - x5 <= 0
a10a6: y10,6 - x6 <= 0
a10a7: y10,7 - x7 <= 0
a10a8: y10,8 - x8 <= 0
a10a9: y10,9 - x9 <= 0
a10a10: y10,10 - x10 <= 0
a10a11: y10,11 - x11 <= 0
a10a12: y10,12 - x12 <= 0
a10a13: y10,13 - x13 <= 0
a10a14: y10,14 - x14 <= 0
a10a15: y10,15 - x15 <= 0
a10a16: y10,16 - x16 <= 0
b1b2b1: y1,1 + y2,1 <= 1
b1b2b2: y1,2 + y2,2 <= 1
b1b2b3: y1,3 + y2,3 <= 1
b1b2b4: y1,4 + y2,4 <= 1
b1b2b5: y1,5 + y2,5 <= 1
b1b2b6: y1,6 + y2,6 <= 1
b1b2b7: y1,7 + y2,7 <= 1
b1b2b8: y1,8 + y2,8 <= 1
b1b2b9: y1,9 + y2,9 <= 1
b1b2b10: y1,10 + y2,10 <= 1
b1b2b11: y1,11 + y2,11 <= 1
b1b2b12: y1,12 + y2,12 <= 1
b1b2b13: y1,13 + y2,13 <= 1
b1b2b14: y1,14 + y2,14 <= 1
b1b2b15: y1,15 + y2,15 <= 1
b1b2b16: y1,16 + y2,16 <= 1
b1b5b1: y1,1 + y5,1 <= 1
b1b5b2: y1,2 + y5,2 <= 1
b1b5b3: y1,3 + y5,3 <= 1
b1b5b4: y1,4 + y5,4 <= 1
b1b5b5: y1,5 + y5,5 <= 1
b1b5b6: y1,6 + y5,6 <= 1
b1b5b7: y1,7 + y5,7 <= 1
b1b5b8: y1,8 + y5,8 <= 1
b1b5b9: y1,9 + y5,9 <= 1
b1b5b10: y1,10 + y5,10 <= 1
b1b5b11: y1,11 + y5,11 <= 1
b1b5b12: y1,12 + y5,12 <= 1
b1b5b13: y1,13 + y5,13 <= 1
b1b5b14: y1,14 + y5,14 <= 1
b1b5b15: y1,15 + y5,15 <= 1
b1b5b16: y1,16 + y5,16 <= 1
b1b9b1: y1,1 + y9,1 <= 1
b1b9b2: y1,2 + y9,2 <= 1
b1b9b3: y1,3 + y9,3 <= 1
b1b9b4: y1,4 + y9,4 <= 1
b1b9b5: y1,5 + y9,5 <= 1
b1b9b6: y1,6 + y9,6 <= 1
b1b9b7: y1,7 + y9,7 <= 1
b1b9b8: y1,8 + y9,8 <= 1
b1b9b9: y1,9 + y9,9 <= 1
b1b9b10: y1,10 + y9,10 <= 1
b1b9b11: y1,11 + y9,11 <= 1
b1b9b12: y1,12 + y9,12 <= 1
b1b9b13: y1,13 + y9,13 <= 1
b1b9b14: y1,14 + y9,14 <= 1
b1b9b15: y1,15 + y9,15 <= 1
b1b9b16: y1,16 + y9,16 <= 1
b1b10b1: y1,1 + y10,1 <= 1
b1b10b2: y1,2 + y10,2 <= 1
b1b10b3: y1,3 + y10,3 <= 1
b1b10b4: y1,4 + y10,4 <= 1
b1b10b5: y1,5 + y10,5 <= 1
b1b10b6: y1,6 + y10,6 <= 1
b1b10b7: y1,7 + y10,7 <= 1
b1b10b8: y1,8 + y10,8 <= 1
b1b10b9: y1,9 + y10,9 <= 1
b1b10b10: y1,10 + y10,10 <= 1
b1b10b11: y1,11 + y10,11 <= 1
b1b10b12: y1,12 + y10,12 <= 1
b1b10b13: y1,13 + y10,13 <= 1
b1b10b14: y1,14 + y10,14 <= 1
b1b10b15: y1,15 + y10,15 <= 1
b1b10b16: y1,16 + y10,16 <= 1
b2b1b1: y2,1 + y1,1 <= 1
b2b1b2: y2,2 + y1,2 <= 1
b2b1b3: y2,3 + y1,3 <= 1
b2b1b4: y2,4 + y1,4 <= 1
b2b1b5: y2,5 + y1,5 <= 1
b2b1b6: y2,6 + y1,6 <= 1
b2b1b7: y2,7 + y1,7 <= 1
b2b1b8: y2,8 + y1,8 <= 1
b2b1b9: y2,9 + y1,9 <= 1
b2b1b10: y2,10 + y1,10 <= 1
b2b1b11: y2,11 + y1,11 <= 1
b2b1b12: y2,12 + y1,12 <= 1
b2b1b13: y2,13 + y1,13 <= 1
b2b1b14: y2,14 + y1,14 <= 1
b2b1b15: y2,15 + y1,15 <= 1
b2b1b16: y2,16 + y1,16 <= 1
b2b5b1: y2,1 + y5,1 <= 1
b2b5b2: y2,2 + y5,2 <= 1
b2b5b3: y2,3 + y5,3 <= 1
b2b5b4: y2,4 + y5,4 <= 1
b2b5b5: y2,5 + y5,5 <= 1
b2b5b6: y2,6 + y5,6 <= 1
b2b5b7: y2,7 + y5,7 <= 1
b2b5b8: y2,8 + y5,8 <= 1
b2b5b9: y2,9 + y5,9 <= 1
b2b5b10: y2,10 + y5,10 <= 1
b2b5b11: y2,11 + y5,11 <= 1
b2b5b12: y2,12 + y5,12 <= 1
b2b5b13: y2,13 + y5,13 <= 1
b2b5b14: y2,14 + y5,14 <= 1
b2b5b15: y2,15 + y5,15 <= 1
b2b5b16: y2,16 + y5,16 <= 1
b4b6b1: y4,1 + y6,1 <= 1
b4b6b2: y4,2 + y6,2 <= 1
b4b6b3: y4,3 + y6,3 <= 1
b4b6b4: y4,4 + y6,4 <= 1
b4b6b5: y4,5 + y6,5 <= 1
b4b6b6: y4,6 + y6,6 <= 1
b4b6b7: y4,7 + y6,7 <= 1
b4b6b8: y4,8 + y6,8 <= 1
b4b6b9: y4,9 + y6,9 <= 1
b4b6b10: y4,10 + y6,10 <= 1
b4b6b11: y4,11 + y6,11 <= 1
b4b6b12: y4,12 + y6,12 <= 1
b4b6b13: y4,13 + y6,13 <= 1
b4b6b14: y4,14 + y6,14 <= 1
b4b6b15: y4,15 + y6,15 <= 1
b4b6b16: y4,16 + y6,16 <= 1
b4b10b1: y4,1 + y10,1 <= 1
b4b10b2: y4,2 + y10,2 <= 1
b4b10b3: y4,3 + y10,3 <= 1
b4b10b4: y4,4 + y10,4 <= 1
b4b10b5: y4,5 + y10,5 <= 1
b4b10b6: y4,6 + y10,6 <= 1
b4b10b7: y4,7 + y10,7 <= 1
b4b10b8: y4,8 + y10,8 <= 1
b4b10b9: y4,9 + y10,9 <= 1
b4b10b10: y4,10 + y10,10 <= 1
b4b10b11: y4,11 + y10,11 <= 1
b4b10b12: y4,12 + y10,12 <= 1
b4b10b13: y4,13 + y10,13 <= 1
b4b10b14: y4,14 + y10,14 <= 1
b4b10b15: y4,15 + y10,15 <= 1
b4b10b16: y4,16 + y10,16 <= 1
b5b1b1: y5,1 + y1,1 <= 1
b5b1b2: y5,2 + y1,2 <= 1
b5b1b3: y5,3 + y1,3 <= 1
b5b1b4: y5,4 + y1,4 <= 1
b5b1b5: y5,5 + y1,5 <= 1
b5b1b6: y5,6 + y1,6 <= 1
b5b1b7: y5,7 + y1,7 <= 1
b5b1b8: y5,8 + y1,8 <= 1
b5b1b9: y5,9 + y1,9 <= 1
b5b1b10: y5,10 + y1,10 <= 1
b5b1b11: y5,11 + y1,11 <= 1
b5b1b12: y5,12 + y1,12 <= 1
b5b1b13: y5,13 + y1,13 <= 1
b5b1b14: y5,14 + y1,14 <= 1
b5b1b15: y5,15 + y1,15 <= 1
b5b1b16: y5,16 + y1,16 <= 1
b5b2b1: y5,1 + y2,1 <= 1
b5b2b2: y5,2 + y2,2 <= 1
b5b2b3: y5,3 + y2,3 <= 1
b5b2b4: y5,4 + y2,4 <= 1
b5b2b5: y5,5 + y2,5 <= 1
b5b2b6: y5,6 + y2,6 <= 1
b5b2b7: y5,7 + y2,7 <= 1
b5b2b8: y5,8 + y2,8 <= 1
b5b2b9: y5,9 + y2,9 <= 1
b5b2b10: y5,10 + y2,10 <= 1
b5b2b11: y5,11 + y2,11 <= 1
b5b2b12: y5,12 + y2,12 <= 1
b5b2b13: y5,13 + y2,13 <= 1
b5b2b14: y5,14 + y2,14 <= 1
b5b2b15: y5,15 + y2,15 <= 1
b5b2b16: y5,16 + y2,16 <= 1
b5b8b1: y5,1 + y8,1 <= 1
b5b8b2: y5,2 + y8,2 <= 1
b5b8b3: y5,3 + y8,3 <= 1
b5b8b4: y5,4 + y8,4 <= 1
b5b8b5: y5,5 + y8,5 <= 1
b5b8b6: y5,6 + y8,6 <= 1
b5b8b7: y5,7 + y8,7 <= 1
b5b8b8: y5,8 + y8,8 <= 1
b5b8b9: y5,9 + y8,9 <= 1
b5b8b10: y5,10 + y8,10 <= 1
b5b8b11: y5,11 + y8,11 <= 1
b5b8b12: y5,12 + y8,12 <= 1
b5b8b13: y5,13 + y8,13 <= 1
b5b8b14: y5,14 + y8,14 <= 1
b5b8b15: y5,15 + y8,15 <= 1
b5b8b16: y5,16 + y8,16 <= 1
b5b9b1: y5,1 + y9,1 <= 1
b5b9b2: y5,2 + y9,2 <= 1
b5b9b3: y5,3 + y9,3 <= 1
b5b9b4: y5,4 + y9,4 <= 1
b5b9b5: y5,5 + y9,5 <= 1
b5b9b6: y5,6 + y9,6 <= 1
b5b9b7: y5,7 + y9,7 <= 1
b5b9b8: y5,8 + y9,8 <= 1
b5b9b9: y5,9 + y9,9 <= 1
b5b9b10: y5,10 + y9,10 <= 1
b5b9b11: y5,11 + y9,11 <= 1
b5b9b12: y5,12 + y9,12 <= 1
b5b9b13: y5,13 + y9,13 <= 1
b5b9b14: y5,14 + y9,14 <= 1
b5b9b15: y5,15 + y9,15 <= 1
b5b9b16: y5,16 + y9,16 <= 1
b6b4b1: y6,1 + y4,1 <= 1
b6b4b2: y6,2 + y4,2 <= 1
b6b4b3: y6,3 + y4,3 <= 1
b6b4b4: y6,4 + y4,4 <= 1
b6b4b5: y6,5 + y4,5 <= 1
b6b4b6: y6,6 + y4,6 <= 1
b6b4b7: y6,7 + y4,7 <= 1
b6b4b8: y6,8 + y4,8 <= 1
b6b4b9: y6,9 + y4,9 <= 1
b6b4b10: y6,10 + y4,10 <= 1
b6b4b11: y6,11 + y4,11 <= 1
b6b4b12: y6,12 + y4,12 <= 1
b6b4b13: y6,13 + y4,13 <= 1
b6b4b14: y6,14 + y4,14 <= 1
b6b4b15: y6,15 + y4,15 <= 1
b6b4b16: y6,16 + y4,16 <= 1
b6b9b1: y6,1 + y9,1 <= 1
b6b9b2: y6,2 + y9,2 <= 1
b6b9b3: y6,3 + y9,3 <= 1
b6b9b4: y6,4 + y9,4 <= 1
b6b9b5: y6,5 + y9,5 <= 1
b6b9b6: y6,6 + y9,6 <= 1
b6b9b7: y6,7 + y9,7 <= 1
b6b9b8: y6,8 + y9,8 <= 1
b6b9b9: y6,9 + y9,9 <= 1
b6b9b10: y6,10 + y9,10 <= 1
b6b9b11: y6,11 + y9,11 <= 1
b6b9b12: y6,12 + y9,12 <= 1
b6b9b13: y6,13 + y9,13 <= 1
b6b9b14: y6,14 + y9,14 <= 1
b6b9b15: y6,15 + y9,15 <= 1
b6b9b16: y6,16 + y9,16 <= 1
b6b10b1: y6,1 + y10,1 <= 1
b6b10b2: y6,2 + y10,2 <= 1
b6b10b3: y6,3 + y10,3 <= 1
b6b10b4: y6,4 + y10,4 <= 1
b6b10b5: y6,5 + y10,5 <= 1
b6b10b6: y6,6 + y10,6 <= 1
b6b10b7: y6,7 + y10,7 <= 1
b6b10b8: y6,8 + y10,8 <= 1
b6b10b9: y6,9 + y10,9 <= 1
b6b10b10: y6,10 + y10,10 <= 1
b6b10b11: y6,11 + y10,11 <= 1
b6b10b12: y6,12 + y10,12 <= 1
b6b10b13: y6,13 + y10,13 <= 1
b6b10b14: y6,14 + y10,14 <= 1
b6b10b15: y6,15 + y10,15 <= 1
b6b10b16: y6,16 + y10,16 <= 1
b7b10b1: y7,1 + y10,1 <= 1
b7b10b2: y7,2 + y10,2 <= 1
b7b10b3: y7,3 + y10,3 <= 1
b7b10b4: y7,4 + y10,4 <= 1
b7b10b5: y7,5 + y10,5 <= 1
b7b10b6: y7,6 + y10,6 <= 1
b7b10b7: y7,7 + y10,7 <= 1
b7b10b8: y7,8 + y10,8 <= 1
b7b10b9: y7,9 + y10,9 <= 1
b7b10b10: y7,10 + y10,10 <= 1
b7b10b11: y7,11 + y10,11 <= 1
b7b10b12: y7,12 + y10,12 <= 1
b7b10b13: y7,13 + y10,13 <= 1
b7b10b14: y7,14 + y10,14 <= 1
b7b10b15: y7,15 + y10,15 <= 1
b7b10b16: y7,16 + y10,16 <= 1
b8b5b1: y8,1 + y5,1 <= 1
b8b5b2: y8,2 + y5,2 <= 1
b8b5b3: y8,3 + y5,3 <= 1
b8b5b4: y8,4 + y5,4 <= 1
b8b5b5: y8,5 + y5,5 <= 1
b8b5b6: y8,6 + y5,6 <= 1
b8b5b7: y8,7 + y5,7 <= 1
b8b5b8: y8,8 + y5,8 <= 1
b8b5b9: y8,9 + y5,9 <= 1
b8b5b10: y8,10 + y5,10 <= 1
b8b5b11: y8,11 + y5,11 <= 1
b8b5b12: y8,12 + y5,12 <= 1
b8b5b13: y8,13 + y5,13 <= 1
b8b5b14: y8,14 + y5,14 <= 1
b8b5b15: y8,15 + y5,15 <= 1
b8b5b16: y8,16 + y5,16 <= 1
b9b1b1: y9,1 + y1,1 <= 1
b9b1b2: y9,2 + y1,2 <= 1
b9b1b3: y9,3 + y1,3 <= 1
b9b1b4: y9,4 + y1,4 <= 1
b9b1b5: y9,5 + y1,5 <= 1
b9b1b6: y9,6 + y1,6 <= 1
b9b1b7: y9,7 + y1,7 <= 1
b9b1b8: y9,8 + y1,8 <= 1
b9b1b9: y9,9 + y1,9 <= 1
b9b1b10: y9,10 + y1,10 <= 1
b9b1b11: y9,11 + y1,11 <= 1
b9b1b12: y9,12 + y1,12 <= 1
b9b1b13: y9,13 + y1,13 <= 1
b9b1b14: y9,14 + y1,14 <= 1
b9b1b15: y9,15 + y1,15 <= 1
b9b1b16: y9,16 + y1,16 <= 1
b9b5b1: y9,1 + y5,1 <= 1
b9b5b2: y9,2 + y5,2 <= 1
b9b5b3: y9,3 + y5,3 <= 1
b9b5b4: y9,4 + y5,4 <= 1
b9b5b5: y9,5 + y5,5 <= 1
b9b5b6: y9,6 + y5,6 <= 1
b9b5b7: y9,7 + y5,7 <= 1
b9b5b8: y9,8 + y5,8 <= 1
b9b5b9: y9,9 + y5,9 <= 1
b9b5b10: y9,10 + y5,10 <= 1
b9b5b11: y9,11 + y5,11 <= 1
b9b5b12: y9,12 + y5,12 <= 1
b9b5b13: y9,13 + y5,13 <= 1
b9b5b14: y9,14 + y5,14 <= 1
b9b5b15: y9,15 + y5,15 <= 1
b9b5b16: y9,16 + y5,16 <= 1
b9b6b1: y9,1 + y6,1 <= 1
b9b6b2: y9,2 + y6,2 <= 1
b9b6b3: y9,3 + y6,3 <= 1
b9b6b4: y9,4 + y6,4 <= 1
b9b6b5: y9,5 + y6,5 <= 1
b9b6b6: y9,6 + y6,6 <= 1
b9b6b7: y9,7 + y6,7 <= 1
b9b6b8: y9,8 + y6,8 <= 1
b9b6b9: y9,9 + y6,9 <= 1
b9b6b10: y9,10 + y6,10 <= 1
b9b6b11: y9,11 + y6,11 <= 1
b9b6b12: y9,12 + y6,12 <= 1
b9b6b13: y9,13 + y6,13 <= 1
b9b6b14: y9,14 + y6,14 <= 1
b9b6b15: y9,15 + y6,15 <= 1
b9b6b16: y9,16 + y6,16 <= 1
b10b1b1: y10,1 + y1,1 <= 1
b10b1b2: y10,2 + y1,2 <= 1
b10b1b3: y10,3 + y1,3 <= 1
b10b1b4: y10,4 + y1,4 <= 1
b10b1b5: y10,5 + y1,5 <= 1
b10b1b6: y10,6 + y1,6 <= 1
b10b1b7: y10,7 + y1,7 <= 1
b10b1b8: y10,8 + y1,8 <= 1
b10b1b9: y10,9 + y1,9 <= 1
b10b1b10: y10,10 + y1,10 <= 1
b10b1b11: y10,11 + y1,11 <= 1
b10b1b12: y10,12 + y1,12 <= 1
b10b1b13: y10,13 + y1,13 <= 1
b10b1b14: y10,14 + y1,14 <= 1
b10b1b15: y10,15 + y1,15 <= 1
b10b1b16: y10,16 + y1,16 <= 1
b10b4b1: y10,1 + y4,1 <= 1
b10b4b2: y10,2 + y4,2 <= 1
b10b4b3: y10,3 + y4,3 <= 1
b10b4b4: y10,4 + y4,4 <= 1
b10b4b5: y10,5 + y4,5 <= 1
b10b4b6: y10,6 + y4,6 <= 1
b10b4b7: y10,7 + y4,7 <= 1
b10b4b8: y10,8 + y4,8 <= 1
b10b4b9: y10,9 + y4,9 <= 1
b10b4b10: y10,10 + y4,10 <= 1
b10b4b11: y10,11 + y4,11 <= 1
b10b4b12: y10,12 + y4,12 <= 1
b10b4b13: y10,13 + y4,13 <= 1
b10b4b14: y10,14 + y4,14 <= 1
b10b4b15: y10,15 + y4,15 <= 1
b10b4b16: y10,16 + y4,16 <= 1
b10b6b1: y10,1 + y6,1 <= 1
b10b6b2: y10,2 + y6,2 <= 1
b10b6b3: y10,3 + y6,3 <= 1
b10b6b4: y10,4 + y6,4 <= 1
b10b6b5: y10,5 + y6,5 <= 1
b10b6b6: y10,6 + y6,6 <= 1
b10b6b7: y10,7 + y6,7 <= 1
b10b6b8: y10,8 + y6,8 <= 1
b10b6b9: y10,9 + y6,9 <= 1
b10b6b10: y10,10 + y6,10 <= 1
b10b6b11: y10,11 + y6,11 <= 1
b10b6b12: y10,12 + y6,12 <= 1
b10b6b13: y10,13 + y6,13 <= 1
b10b6b14: y10,14 + y6,14 <= 1
b10b6b15: y10,15 + y6,15 <= 1
b10b6b16: y10,16 + y6,16 <= 1
b10b7b1: y10,1 + y7,1 <= 1
b10b7b2: y10,2 + y7,2 <= 1
b10b7b3: y10,3 + y7,3 <= 1
b10b7b4: y10,4 + y7,4 <= 1
b10b7b5: y10,5 + y7,5 <= 1
b10b7b6: y10,6 + y7,6 <= 1
b10b7b7: y10,7 + y7,7 <= 1
b10b7b8: y10,8 + y7,8 <= 1
b10b7b9: y10,9 + y7,9 <= 1
b10b7b10: y10,10 + y7,10 <= 1
b10b7b11: y10,11 + y7,11 <= 1
b10b7b12: y10,12 + y7,12 <= 1
b10b7b13: y10,13 + y7,13 <= 1
b10b7b14: y10,14 + y7,14 <= 1
b10b7b15: y10,15 + y7,15 <= 1
b10b7b16: y10,16 + y7,16 <= 1
c1: y1,1 + y1,2 + y1,3 + y1,4 + y1,5 + y1,6 + y1,7 + y1,8 + y1,9 + y1,10 + y1,11 + y1,12 + y1,13 + y1,14 + y1,15 + y1,16 = 1
c2: y2,1 + y2,2 + y2,3 + y2,4 + y2,5 + y2,6 + y2,7 + y2,8 + y2,9 + y2,10 + y2,11 + y2,12 + y2,13 + y2,14 + y2,15 + y2,16 = 1
c3: y3,1 + y3,2 + y3,3 + y3,4 + y3,5 + y3,6 + y3,7 + y3,8 + y3,9 + y3,10 + y3,11 + y3,12 + y3,13 + y3,14 + y3,15 + y3,16 = 1
c4: y4,1 + y4,2 + y4,3 + y4,4 + y4,5 + y4,6 + y4,7 + y4,8 + y4,9 + y4,10 + y4,11 + y4,12 + y4,13 + y4,14 + y4,15 + y4,16 = 1
c5: y5,1 + y5,2 + y5,3 + y5,4 + y5,5 + y5,6 + y5,7 + y5,8 + y5,9 + y5,10 + y5,11 + y5,12 + y5,13 + y5,14 + y5,15 + y5,16 = 1
c6: y6,1 + y6,2 + y6,3 + y6,4 + y6,5 + y6,6 + y6,7 + y6,8 + y6,9 + y6,10 + y6,11 + y6,12 + y6,13 + y6,14 + y6,15 + y6,16 = 1
c7: y7,1 + y7,2 + y7,3 + y7,4 + y7,5 + y7,6 + y7,7 + y7,8 + y7,9 + y7,10 + y7,11 + y7,12 + y7,13 + y7,14 + y7,15 + y7,16 = 1
c8: y8,1 + y8,2 + y8,3 + y8,4 + y8,5 + y8,6 + y8,7 + y8,8 + y8,9 + y8,10 + y8,11 + y8,12 + y8,13 + y8,14 + y8,15 + y8,16 = 1
c9: y9,1 + y9,2 + y9,3 + y9,4 + y9,5 + y9,6 + y9,7 + y9,8 + y9,9 + y9,10 + y9,11 + y9,12 + y9,13 + y9,14 + y9,15 + y9,16 = 1
c10: y10,1 + y10,2 + y10,3 + y10,4 + y10,5 + y10,6 + y10,7 + y10,8 + y10,9 + y10,10 + y10,11 + y10,12 + y10,13 + y10,14 + y10,15 + y10,16 = 1
d1: y1,1 + y2,1 + y3,1 + y4,1 + y5,1 + y6,1 + y7,1 + y8,1 + y9,1 + y10,1 <= 6
d2: y1,2 + y2,2 + y3,2 + y4,2 + y5,2 + y6,2 + y7,2 + y8,2 + y9,2 + y10,2 <= 8
d3: y1,3 + y2,3 + y3,3 + y4,3 + y5,3 + y6,3 + y7,3 + y8,3 + y9,3 + y10,3 <= 10
d4: y1,4 + y2,4 + y3,4 + y4,4 + y5,4 + y6,4 + y7,4 + y8,4 + y9,4 + y10,4 <= 5
d5: y1,5 + y2,5 + y3,5 + y4,5 + y5,5 + y6,5 + y7,5 + y8,5 + y9,5 + y10,5 <= 6
d6: y1,6 + y2,6 + y3,6 + y4,6 + y5,6 + y6,6 + y7,6 + y8,6 + y9,6 + y10,6 <= 5
d7: y1,7 + y2,7 + y3,7 + y4,7 + y5,7 + y6,7 + y7,7 + y8,7 + y9,7 + y10,7 <= 8
d8: y1,8 + y2,8 + y3,8 + y4,8 + y5,8 + y6,8 + y7,8 + y8,8 + y9,8 + y10,8 <= 9
d9: y1,9 + y2,9 + y3,9 + y4,9 + y5,9 + y6,9 + y7,9 + y8,9 + y9,9 + y10,9 <= 3
d10: y1,10 + y2,10 + y3,10 + y4,10 + y5,10 + y6,10 + y7,10 + y8,10 + y9,10 + y10,10 <= 9
d11: y1,11 + y2,11 + y3,11 + y4,11 + y5,11 + y6,11 + y7,11 + y8,11 + y9,11 + y10,11 <= 6
d12: y1,12 + y2,12 + y3,12 + y4,12 + y5,12 + y6,12 + y7,12 + y8,12 + y9,12 + y10,12 <= 4
d13: y1,13 + y2,13 + y3,13 + y4,13 + y5,13 + y6,13 + y7,13 + y8,13 + y9,13 + y10,13 <= 5
d14: y1,14 + y2,14 + y3,14 + y4,14 + y5,14 + y6,14 + y7,14 + y8,14 + y9,14 + y10,14 <= 3
d15: y1,15 + y2,15 + y3,15 + y4,15 + y5,15 + y6,15 + y7,15 + y8,15 + y9,15 + y10,15 <= 3
d16: y1,16 + y2,16 + y3,16 + y4,16 + y5,16 + y6,16 + y7,16 + y8,16 + y9,16 + y10,16 <= 4
Binaries
x1
x2
x3
x4
x5
x6
x7
x8
x9
x10
x11
x12
x13
x14
x15
x16
y1,1
y1,2
y1,3
y1,4
y1,5
y1,6
y1,7
y1,8
y1,9
y1,10
y2,1
y2,2
y2,3
y2,4
y2,5
y2,6
y2,7
y2,8
y2,9
y2,10
y3,1
y3,2
y3,3
y3,4
y3,5
y3,6
y3,7
y3,8
y3,9
y3,10
y4,1
y4,2
y4,3
y4,4
y4,5
y4,6
y4,7
y4,8
y4,9
y4,10
y5,1
y5,2
y5,3
y5,4
y5,5
y5,6
y5,7
y5,8
y5,9
y5,10
y6,1
y6,2
y6,3
y6,4
y6,5
y6,6
y6,7
y6,8
y6,9
y6,10
y7,1
y7,2
y7,3
y7,4
y7,5
y7,6
y7,7
y7,8
y7,9
y7,10
y8,1
y8,2
y8,3
y8,4
y8,5
y8,6
y8,7
y8,8
y8,9
y8,10
y9,1
y9,2
y9,3
y9,4
y9,5
y9,6
y9,7
y9,8
y9,9
y9,10
y10,1
y10,2
y10,3
y10,4
y10,5
y10,6
y10,7
y10,8
y10,9
y10,10
y11,1
y11,2
y11,3
y11,4
y11,5
y11,6
y11,7
y11,8
y11,9
y11,10
y12,1
y12,2
y12,3
y12,4
y12,5
y12,6
y12,7
y12,8
y12,9
y12,10
y13,1
y13,2
y13,3
y13,4
y13,5
y13,6
y13,7
y13,8
y13,9
y13,10
y14,1
y14,2
y14,3
y14,4
y14,5
y14,6
y14,7
y14,8
y14,9
y14,10
y15,1
y15,2
y15,3
y15,4
y15,5
y15,6
y15,7
y15,8
y15,9
y15,10
y16,1
y16,2
y16,3
y16,4
y16,5
y16,6
y16,7
y16,8
y16,9
y16,10
End