instances/small/instance10_16.txt
16 10
48 6
64 8
70 10
25 5
42 6
40 5
48 8
54 9
21 3
72 9
30 6
20 4
35 5
27 3
18 3
28 4
4 1 4 8 9
1 4
0
2 5 9
2 7 8
2 8 9
1 9
0
0
0
